NAME: cum130.tsp
TYPE: TSP
COMMENT: User-generated TSP file
DIMENSION: 130
EDGE_WEIGHT_TYPE: EUC_2D
NODE_COORD_SECTION
1 64.0 108.0
2 9.0 120.0
3 95.0 43.0
4 116.0 118.0
5 40.0 109.0
6 44.0 66.0
7 28.0 76.0
8 110.0 103.0
9 66.0 80.0
10 2.0 96.0
11 62.0 5.0
12 91.0 32.0
13 79.0 113.0
14 54.0 105.0
15 119.0 60.0
16 40.0 60.0
17 97.0 90.0
18 61.0 93.0
19 32.0 7.0
20 29.0 6.0
21 37.0 36.0
22 77.0 15.0
23 123.0 126.0
24 27.0 104.0
25 2.0 13.0
26 129.0 73.0
27 50.0 56.0
28 86.0 107.0
29 124.0 63.0
30 105.0 81.0
31 38.0 17.0
32 70.0 24.0
33 48.0 47.0
34 57.0 43.0
35 2.0 61.0
36 78.0 105.0
37 108.0 44.0
38 23.0 76.0
39 52.0 62.0
40 38.0 6.0
41 63.0 78.0
42 28.0 100.0
43 49.0 106.0
44 82.0 72.0
45 102.0 71.0
46 18.0 49.0
47 8.0 97.0
48 46.0 124.0
49 60.0 54.0
50 123.0 102.0
51 18.0 80.0
52 5.0 17.0
53 21.0 37.0
54 28.0 31.0
55 123.0 38.0
56 76.0 53.0
57 85.0 123.0
58 76.0 26.0
59 50.0 74.0
60 46.0 4.0
61 100.0 96.0
62 41.0 9.0
63 14.0 39.0
64 128.0 50.0
65 105.0 91.0
66 107.0 4.0
67 28.0 95.0
68 104.0 106.0
69 90.0 51.0
70 86.0 47.0
71 31.0 21.0
72 38.0 81.0
73 71.0 127.0
74 64.0 73.0
75 109.0 112.0
76 62.0 80.0
77 94.0 130.0
78 126.0 109.0
79 82.0 54.0
80 85.0 52.0
81 37.0 87.0
82 90.0 113.0
83 12.0 86.0
84 37.0 111.0
85 5.0 40.0
86 113.0 86.0
87 123.0 88.0
88 4.0 120.0
89 82.0 14.0
90 40.0 94.0
91 91.0 114.0
92 21.0 17.0
93 14.0 68.0
94 23.0 32.0
95 26.0 118.0
96 117.0 105.0
97 15.0 72.0
98 18.0 48.0
99 71.0 55.0
100 81.0 126.0
101 31.0 109.0
102 31.0 13.0
103 81.0 78.0
104 22.0 115.0
105 105.0 55.0
106 92.0 116.0
107 66.0 2.0
108 17.0 81.0
109 59.0 24.0
110 22.0 64.0
111 22.0 73.0
112 101.0 69.0
113 9.0 118.0
114 47.0 44.0
115 47.0 5.0
116 80.0 24.0
117 54.0 113.0
118 68.0 64.0
119 81.0 46.0
120 114.0 33.0
121 14.0 35.0
122 9.0 91.0
123 92.0 10.0
124 26.0 25.0
125 106.0 36.0
126 129.0 112.0
127 45.0 98.0
128 66.0 69.0
129 88.0 95.0
130 70.0 116.0
EOF





